p wcnf 390 1200
w -2 0.367879 0
w 2 2.718282 0
w -3 0.367879 0
w 3 2.718282 0
w -4 0.367879 0
w 4 2.718282 0
w -5 0.367879 0
w 5 2.718282 0
w -6 0.367879 0
w 6 2.718282 0
w -7 0.367879 0
w 7 2.718282 0
w -9 0.367879 0
w 9 2.718282 0
w -10 0.367879 0
w 10 2.718282 0
w -11 0.367879 0
w 11 2.718282 0
w -12 0.367879 0
w 12 2.718282 0
w -13 0.367879 0
w 13 2.718282 0
w -14 0.367879 0
w 14 2.718282 0
w -15 0.367879 0
w 15 2.718282 0
w -17 0.367879 0
w 17 2.718282 0
w -18 0.367879 0
w 18 2.718282 0
w -19 0.367879 0
w 19 2.718282 0
w -20 0.367879 0
w 20 2.718282 0
w -21 0.367879 0
w 21 2.718282 0
w -22 0.367879 0
w 22 2.718282 0
w -23 0.367879 0
w 23 2.718282 0
w -24 0.367879 0
w 24 2.718282 0
w -26 0.367879 0
w 26 2.718282 0
w -27 0.367879 0
w 27 2.718282 0
w -28 0.367879 0
w 28 2.718282 0
w -29 0.367879 0
w 29 2.718282 0
w -30 0.367879 0
w 30 2.718282 0
w -31 0.367879 0
w 31 2.718282 0
w -32 0.367879 0
w 32 2.718282 0
w -33 0.367879 0
w 33 2.718282 0
w -34 0.367879 0
w 34 2.718282 0
w -35 0.367879 0
w 35 2.718282 0
w -36 0.367879 0
w 36 2.718282 0
w -37 0.367879 0
w 37 2.718282 0
w -39 0.367879 0
w 39 2.718282 0
w -40 0.367879 0
w 40 2.718282 0
w -41 0.367879 0
w 41 2.718282 0
w -42 0.367879 0
w 42 2.718282 0
w -43 0.367879 0
w 43 2.718282 0
w -44 0.367879 0
w 44 2.718282 0
w -45 0.367879 0
w 45 2.718282 0
w -46 0.367879 0
w 46 2.718282 0
w -48 0.367879 0
w 48 2.718282 0
w -49 0.367879 0
w 49 2.718282 0
w -50 0.367879 0
w 50 2.718282 0
w -51 0.367879 0
w 51 2.718282 0
w -52 0.367879 0
w 52 2.718282 0
w -53 0.367879 0
w 53 2.718282 0
w -55 0.367879 0
w 55 2.718282 0
w -56 0.367879 0
w 56 2.718282 0
w -57 0.367879 0
w 57 2.718282 0
w -58 0.367879 0
w 58 2.718282 0
w -59 0.367879 0
w 59 2.718282 0
w -60 0.367879 0
w 60 2.718282 0
w -61 0.367879 0
w 61 2.718282 0
w -62 0.367879 0
w 62 2.718282 0
w -64 0.367879 0
w 64 2.718282 0
w -65 0.367879 0
w 65 2.718282 0
w -66 0.367879 0
w 66 2.718282 0
w -67 0.367879 0
w 67 2.718282 0
w -68 0.367879 0
w 68 2.718282 0
w -70 0.367879 0
w 70 2.718282 0
w -71 0.367879 0
w 71 2.718282 0
w -72 0.367879 0
w 72 2.718282 0
w -73 0.367879 0
w 73 2.718282 0
w -74 0.367879 0
w 74 2.718282 0
w -75 0.367879 0
w 75 2.718282 0
w -76 0.367879 0
w 76 2.718282 0
w -77 0.367879 0
w 77 2.718282 0
w -78 0.367879 0
w 78 2.718282 0
w -80 0.367879 0
w 80 2.718282 0
w -81 0.367879 0
w 81 2.718282 0
w -82 0.367879 0
w 82 2.718282 0
w -83 0.367879 0
w 83 2.718282 0
w -84 0.367879 0
w 84 2.718282 0
w -86 0.367879 0
w 86 2.718282 0
w -87 0.367879 0
w 87 2.718282 0
w -88 0.367879 0
w 88 2.718282 0
w -89 0.367879 0
w 89 2.718282 0
w -90 0.367879 0
w 90 2.718282 0
w -91 0.367879 0
w 91 2.718282 0
w -93 0.367879 0
w 93 2.718282 0
w -94 0.367879 0
w 94 2.718282 0
w -95 0.367879 0
w 95 2.718282 0
w -96 0.367879 0
w 96 2.718282 0
w -97 0.367879 0
w 97 2.718282 0
w -98 0.367879 0
w 98 2.718282 0
w -99 0.367879 0
w 99 2.718282 0
w -100 0.367879 0
w 100 2.718282 0
w -101 0.367879 0
w 101 2.718282 0
w -102 0.367879 0
w 102 2.718282 0
w -104 0.367879 0
w 104 2.718282 0
w -105 0.367879 0
w 105 2.718282 0
w -106 0.367879 0
w 106 2.718282 0
w -107 0.367879 0
w 107 2.718282 0
w -108 0.367879 0
w 108 2.718282 0
w -109 0.367879 0
w 109 2.718282 0
w -111 0.367879 0
w 111 2.718282 0
w -112 0.367879 0
w 112 2.718282 0
w -113 0.367879 0
w 113 2.718282 0
w -115 0.367879 0
w 115 2.718282 0
w -116 0.367879 0
w 116 2.718282 0
w -117 0.367879 0
w 117 2.718282 0
w -118 0.367879 0
w 118 2.718282 0
w -119 0.367879 0
w 119 2.718282 0
w -120 0.367879 0
w 120 2.718282 0
w -121 0.367879 0
w 121 2.718282 0
w -123 0.367879 0
w 123 2.718282 0
w -124 0.367879 0
w 124 2.718282 0
w -125 0.367879 0
w 125 2.718282 0
w -126 0.367879 0
w 126 2.718282 0
w -128 0.367879 0
w 128 2.718282 0
w -129 0.367879 0
w 129 2.718282 0
w -130 0.367879 0
w 130 2.718282 0
w -131 0.367879 0
w 131 2.718282 0
w -132 0.367879 0
w 132 2.718282 0
w -134 0.367879 0
w 134 2.718282 0
w -135 0.367879 0
w 135 2.718282 0
w -136 0.367879 0
w 136 2.718282 0
w -137 0.367879 0
w 137 2.718282 0
w -138 0.367879 0
w 138 2.718282 0
w -139 0.367879 0
w 139 2.718282 0
w -140 0.367879 0
w 140 2.718282 0
w -141 0.367879 0
w 141 2.718282 0
w -142 0.367879 0
w 142 2.718282 0
w -143 0.367879 0
w 143 2.718282 0
w -144 0.367879 0
w 144 2.718282 0
w -146 0.367879 0
w 146 2.718282 0
w -147 0.367879 0
w 147 2.718282 0
w -148 0.367879 0
w 148 2.718282 0
w -150 0.367879 0
w 150 2.718282 0
w -151 0.367879 0
w 151 2.718282 0
w -152 0.367879 0
w 152 2.718282 0
w -153 0.367879 0
w 153 2.718282 0
w -155 0.367879 0
w 155 2.718282 0
w -156 0.367879 0
w 156 2.718282 0
w -157 0.367879 0
w 157 2.718282 0
w -158 0.367879 0
w 158 2.718282 0
w -159 0.367879 0
w 159 2.718282 0
w -160 0.367879 0
w 160 2.718282 0
w -161 0.367879 0
w 161 2.718282 0
w -162 0.367879 0
w 162 2.718282 0
w -164 0.367879 0
w 164 2.718282 0
w -165 0.367879 0
w 165 2.718282 0
w -166 0.367879 0
w 166 2.718282 0
w -167 0.367879 0
w 167 2.718282 0
w -169 0.367879 0
w 169 2.718282 0
w -170 0.367879 0
w 170 2.718282 0
w -171 0.367879 0
w 171 2.718282 0
w -172 0.367879 0
w 172 2.718282 0
w -173 0.367879 0
w 173 2.718282 0
w -174 0.367879 0
w 174 2.718282 0
w -175 0.367879 0
w 175 2.718282 0
w -177 0.367879 0
w 177 2.718282 0
w -178 0.367879 0
w 178 2.718282 0
w -180 0.367879 0
w 180 2.718282 0
w -181 0.367879 0
w 181 2.718282 0
w -182 0.367879 0
w 182 2.718282 0
w -183 0.367879 0
w 183 2.718282 0
w -185 0.367879 0
w 185 2.718282 0
w -186 0.367879 0
w 186 2.718282 0
w -187 0.367879 0
w 187 2.718282 0
w -188 0.367879 0
w 188 2.718282 0
w -190 0.367879 0
w 190 2.718282 0
w -191 0.367879 0
w 191 2.718282 0
w -192 0.367879 0
w 192 2.718282 0
w -193 0.367879 0
w 193 2.718282 0
w -194 0.367879 0
w 194 2.718282 0
w -195 0.367879 0
w 195 2.718282 0
w -198 0.367879 0
w 198 2.718282 0
w -199 0.367879 0
w 199 2.718282 0
w -200 0.367879 0
w 200 2.718282 0
w -201 0.367879 0
w 201 2.718282 0
w -202 0.367879 0
w 202 2.718282 0
w -204 0.367879 0
w 204 2.718282 0
w -205 0.367879 0
w 205 2.718282 0
w -206 0.367879 0
w 206 2.718282 0
w -208 0.367879 0
w 208 2.718282 0
w -209 0.367879 0
w 209 2.718282 0
w -210 0.367879 0
w 210 2.718282 0
w -211 0.367879 0
w 211 2.718282 0
w -213 0.367879 0
w 213 2.718282 0
w -214 0.367879 0
w 214 2.718282 0
w -215 0.367879 0
w 215 2.718282 0
w -216 0.367879 0
w 216 2.718282 0
w -217 0.367879 0
w 217 2.718282 0
w -218 0.367879 0
w 218 2.718282 0
w -219 0.367879 0
w 219 2.718282 0
w -221 0.367879 0
w 221 2.718282 0
w -222 0.367879 0
w 222 2.718282 0
w -223 0.367879 0
w 223 2.718282 0
w -224 0.367879 0
w 224 2.718282 0
w -225 0.367879 0
w 225 2.718282 0
w -226 0.367879 0
w 226 2.718282 0
w -228 0.367879 0
w 228 2.718282 0
w -229 0.367879 0
w 229 2.718282 0
w -230 0.367879 0
w 230 2.718282 0
w -231 0.367879 0
w 231 2.718282 0
w -233 0.367879 0
w 233 2.718282 0
w -234 0.367879 0
w 234 2.718282 0
w -235 0.367879 0
w 235 2.718282 0
w -237 0.367879 0
w 237 2.718282 0
w -239 0.367879 0
w 239 2.718282 0
w -240 0.367879 0
w 240 2.718282 0
w -241 0.367879 0
w 241 2.718282 0
w -243 0.367879 0
w 243 2.718282 0
w -244 0.367879 0
w 244 2.718282 0
w -245 0.367879 0
w 245 2.718282 0
w -246 0.367879 0
w 246 2.718282 0
w -247 0.367879 0
w 247 2.718282 0
w -248 0.367879 0
w 248 2.718282 0
w -249 0.367879 0
w 249 2.718282 0
w -251 0.367879 0
w 251 2.718282 0
w -252 0.367879 0
w 252 2.718282 0
w -253 0.367879 0
w 253 2.718282 0
w -254 0.367879 0
w 254 2.718282 0
w -255 0.367879 0
w 255 2.718282 0
w -257 0.367879 0
w 257 2.718282 0
w -258 0.367879 0
w 258 2.718282 0
w -259 0.367879 0
w 259 2.718282 0
w -260 0.367879 0
w 260 2.718282 0
w -261 0.367879 0
w 261 2.718282 0
w -263 0.367879 0
w 263 2.718282 0
w -264 0.367879 0
w 264 2.718282 0
w -265 0.367879 0
w 265 2.718282 0
w -268 0.367879 0
w 268 2.718282 0
w -269 0.367879 0
w 269 2.718282 0
w -270 0.367879 0
w 270 2.718282 0
w -271 0.367879 0
w 271 2.718282 0
w -272 0.367879 0
w 272 2.718282 0
w -273 0.367879 0
w 273 2.718282 0
w -275 0.367879 0
w 275 2.718282 0
w -276 0.367879 0
w 276 2.718282 0
w -277 0.367879 0
w 277 2.718282 0
w -279 0.367879 0
w 279 2.718282 0
w -280 0.367879 0
w 280 2.718282 0
w -281 0.367879 0
w 281 2.718282 0
w -282 0.367879 0
w 282 2.718282 0
w -284 0.367879 0
w 284 2.718282 0
w -285 0.367879 0
w 285 2.718282 0
w -286 0.367879 0
w 286 2.718282 0
w -287 0.367879 0
w 287 2.718282 0
w -289 0.367879 0
w 289 2.718282 0
w -290 0.367879 0
w 290 2.718282 0
w -291 0.367879 0
w 291 2.718282 0
w -293 0.367879 0
w 293 2.718282 0
w -294 0.367879 0
w 294 2.718282 0
w -295 0.367879 0
w 295 2.718282 0
w -296 0.367879 0
w 296 2.718282 0
w -297 0.367879 0
w 297 2.718282 0
w -299 0.367879 0
w 299 2.718282 0
w -300 0.367879 0
w 300 2.718282 0
w -301 0.367879 0
w 301 2.718282 0
w -303 0.367879 0
w 303 2.718282 0
w -304 0.367879 0
w 304 2.718282 0
w -305 0.367879 0
w 305 2.718282 0
w -307 0.367879 0
w 307 2.718282 0
w -309 0.367879 0
w 309 2.718282 0
w -310 0.367879 0
w 310 2.718282 0
w -312 0.367879 0
w 312 2.718282 0
w -313 0.367879 0
w 313 2.718282 0
w -314 0.367879 0
w 314 2.718282 0
w -315 0.367879 0
w 315 2.718282 0
w -316 0.367879 0
w 316 2.718282 0
w -317 0.367879 0
w 317 2.718282 0
w -318 0.367879 0
w 318 2.718282 0
w -320 0.367879 0
w 320 2.718282 0
w -321 0.367879 0
w 321 2.718282 0
w -322 0.367879 0
w 322 2.718282 0
w -325 0.367879 0
w 325 2.718282 0
w -326 0.367879 0
w 326 2.718282 0
w -328 0.367879 0
w 328 2.718282 0
w -329 0.367879 0
w 329 2.718282 0
w -331 0.367879 0
w 331 2.718282 0
w -332 0.367879 0
w 332 2.718282 0
w -335 0.367879 0
w 335 2.718282 0
w -337 0.367879 0
w 337 2.718282 0
w -339 0.367879 0
w 339 2.718282 0
w -341 0.367879 0
w 341 2.718282 0
w -342 0.367879 0
w 342 2.718282 0
w -344 0.367879 0
w 344 2.718282 0
w -346 0.367879 0
w 346 2.718282 0
w -347 0.367879 0
w 347 2.718282 0
w -348 0.367879 0
w 348 2.718282 0
w -350 0.367879 0
w 350 2.718282 0
w -352 0.367879 0
w 352 2.718282 0
w -355 0.367879 0
w 355 2.718282 0
w -357 0.367879 0
w 357 2.718282 0
w -359 0.367879 0
w 359 2.718282 0
w -361 0.367879 0
w 361 2.718282 0
w -362 0.367879 0
w 362 2.718282 0
w -363 0.367879 0
w 363 2.718282 0
w -365 0.367879 0
w 365 2.718282 0
w -366 0.367879 0
w 366 2.718282 0
w -367 0.367879 0
w 367 2.718282 0
w -369 0.367879 0
w 369 2.718282 0
w -372 0.367879 0
w 372 2.718282 0
w -374 0.367879 0
w 374 2.718282 0
w -378 0.367879 0
w 378 2.718282 0
w -380 0.367879 0
w 380 2.718282 0
w -381 0.367879 0
w 381 2.718282 0
2 1 85 0
2 -1 -85 0
-2 1 -85 0
-2 -1 85 0
3 1 149 0
3 -1 -149 0
-3 1 -149 0
-3 -1 149 0
4 1 154 0
4 -1 -154 0
-4 1 -154 0
-4 -1 154 0
5 1 220 0
5 -1 -220 0
-5 1 -220 0
-5 -1 220 0
6 1 343 0
6 -1 -343 0
-6 1 -343 0
-6 -1 343 0
7 1 386 0
7 -1 -386 0
-7 1 -386 0
-7 -1 386 0
9 8 256 0
9 -8 -256 0
-9 8 -256 0
-9 -8 256 0
10 8 274 0
10 -8 -274 0
-10 8 -274 0
-10 -8 274 0
11 8 283 0
11 -8 -283 0
-11 8 -283 0
-11 -8 283 0
12 8 311 0
12 -8 -311 0
-12 8 -311 0
-12 -8 311 0
13 8 324 0
13 -8 -324 0
-13 8 -324 0
-13 -8 324 0
14 8 333 0
14 -8 -333 0
-14 8 -333 0
-14 -8 333 0
15 8 370 0
15 -8 -370 0
-15 8 -370 0
-15 -8 370 0
17 16 85 0
17 -16 -85 0
-17 16 -85 0
-17 -16 85 0
18 16 176 0
18 -16 -176 0
-18 16 -176 0
-18 -16 176 0
19 16 179 0
19 -16 -179 0
-19 16 -179 0
-19 -16 179 0
20 16 197 0
20 -16 -197 0
-20 16 -197 0
-20 -16 197 0
21 16 288 0
21 -16 -288 0
-21 16 -288 0
-21 -16 288 0
22 16 333 0
22 -16 -333 0
-22 16 -333 0
-22 -16 333 0
23 16 364 0
23 -16 -364 0
-23 16 -364 0
-23 -16 364 0
24 16 387 0
24 -16 -387 0
-24 16 -387 0
-24 -16 387 0
26 25 69 0
26 -25 -69 0
-26 25 -69 0
-26 -25 69 0
27 25 79 0
27 -25 -79 0
-27 25 -79 0
-27 -25 79 0
28 25 220 0
28 -25 -220 0
-28 25 -220 0
-28 -25 220 0
29 25 227 0
29 -25 -227 0
-29 25 -227 0
-29 -25 227 0
30 25 278 0
30 -25 -278 0
-30 25 -278 0
-30 -25 278 0
31 25 343 0
31 -25 -343 0
-31 25 -343 0
-31 -25 343 0
32 25 353 0
32 -25 -353 0
-32 25 -353 0
-32 -25 353 0
33 25 373 0
33 -25 -373 0
-33 25 -373 0
-33 -25 373 0
34 25 377 0
34 -25 -377 0
-34 25 -377 0
-34 -25 377 0
35 25 383 0
35 -25 -383 0
-35 25 -383 0
-35 -25 383 0
36 25 385 0
36 -25 -385 0
-36 25 -385 0
-36 -25 385 0
37 25 388 0
37 -25 -388 0
-37 25 -388 0
-37 -25 388 0
39 38 154 0
39 -38 -154 0
-39 38 -154 0
-39 -38 154 0
40 38 168 0
40 -38 -168 0
-40 38 -168 0
-40 -38 168 0
41 38 220 0
41 -38 -220 0
-41 38 -220 0
-41 -38 220 0
42 38 227 0
42 -38 -227 0
-42 38 -227 0
-42 -38 227 0
43 38 334 0
43 -38 -334 0
-43 38 -334 0
-43 -38 334 0
44 38 345 0
44 -38 -345 0
-44 38 -345 0
-44 -38 345 0
45 38 388 0
45 -38 -388 0
-45 38 -388 0
-45 -38 388 0
46 38 389 0
46 -38 -389 0
-46 38 -389 0
-46 -38 389 0
48 47 196 0
48 -47 -196 0
-48 47 -196 0
-48 -47 196 0
49 47 262 0
49 -47 -262 0
-49 47 -262 0
-49 -47 262 0
50 47 292 0
50 -47 -292 0
-50 47 -292 0
-50 -47 292 0
51 47 298 0
51 -47 -298 0
-51 47 -298 0
-51 -47 298 0
52 47 333 0
52 -47 -333 0
-52 47 -333 0
-52 -47 333 0
53 47 384 0
53 -47 -384 0
-53 47 -384 0
-53 -47 384 0
55 54 127 0
55 -54 -127 0
-55 54 -127 0
-55 -54 127 0
56 54 196 0
56 -54 -196 0
-56 54 -196 0
-56 -54 196 0
57 54 232 0
57 -54 -232 0
-57 54 -232 0
-57 -54 232 0
58 54 267 0
58 -54 -267 0
-58 54 -267 0
-58 -54 267 0
59 54 306 0
59 -54 -306 0
-59 54 -306 0
-59 -54 306 0
60 54 338 0
60 -54 -338 0
-60 54 -338 0
-60 -54 338 0
61 54 345 0
61 -54 -345 0
-61 54 -345 0
-61 -54 345 0
62 54 373 0
62 -54 -373 0
-62 54 -373 0
-62 -54 373 0
64 63 176 0
64 -63 -176 0
-64 63 -176 0
-64 -63 176 0
65 63 203 0
65 -63 -203 0
-65 63 -203 0
-65 -63 203 0
66 63 373 0
66 -63 -373 0
-66 63 -373 0
-66 -63 373 0
67 63 388 0
67 -63 -388 0
-67 63 -388 0
-67 -63 388 0
68 63 389 0
68 -63 -389 0
-68 63 -389 0
-68 -63 389 0
70 69 92 0
70 -69 -92 0
-70 69 -92 0
-70 -69 92 0
71 69 176 0
71 -69 -176 0
-71 69 -176 0
-71 -69 176 0
72 69 189 0
72 -69 -189 0
-72 69 -189 0
-72 -69 189 0
73 69 238 0
73 -69 -238 0
-73 69 -238 0
-73 -69 238 0
74 69 288 0
74 -69 -288 0
-74 69 -288 0
-74 -69 288 0
75 69 306 0
75 -69 -306 0
-75 69 -306 0
-75 -69 306 0
76 69 323 0
76 -69 -323 0
-76 69 -323 0
-76 -69 323 0
77 69 360 0
77 -69 -360 0
-77 69 -360 0
-77 -69 360 0
78 69 371 0
78 -69 -371 0
-78 69 -371 0
-78 -69 371 0
80 79 212 0
80 -79 -212 0
-80 79 -212 0
-80 -79 212 0
81 79 250 0
81 -79 -250 0
-81 79 -250 0
-81 -79 250 0
82 79 356 0
82 -79 -356 0
-82 79 -356 0
-82 -79 356 0
83 79 373 0
83 -79 -373 0
-83 79 -373 0
-83 -79 373 0
84 79 376 0
84 -79 -376 0
-84 79 -376 0
-84 -79 376 0
86 85 176 0
86 -85 -176 0
-86 85 -176 0
-86 -85 176 0
87 85 256 0
87 -85 -256 0
-87 85 -256 0
-87 -85 256 0
88 85 343 0
88 -85 -343 0
-88 85 -343 0
-88 -85 343 0
89 85 375 0
89 -85 -375 0
-89 85 -375 0
-89 -85 375 0
90 85 382 0
90 -85 -382 0
-90 85 -382 0
-90 -85 382 0
91 85 384 0
91 -85 -384 0
-91 85 -384 0
-91 -85 384 0
93 92 168 0
93 -92 -168 0
-93 92 -168 0
-93 -92 168 0
94 92 197 0
94 -92 -197 0
-94 92 -197 0
-94 -92 197 0
95 92 266 0
95 -92 -266 0
-95 92 -266 0
-95 -92 266 0
96 92 306 0
96 -92 -306 0
-96 92 -306 0
-96 -92 306 0
97 92 323 0
97 -92 -323 0
-97 92 -323 0
-97 -92 323 0
98 92 334 0
98 -92 -334 0
-98 92 -334 0
-98 -92 334 0
99 92 373 0
99 -92 -373 0
-99 92 -373 0
-99 -92 373 0
100 92 382 0
100 -92 -382 0
-100 92 -382 0
-100 -92 382 0
101 92 383 0
101 -92 -383 0
-101 92 -383 0
-101 -92 383 0
102 92 390 0
102 -92 -390 0
-102 92 -390 0
-102 -92 390 0
104 103 176 0
104 -103 -176 0
-104 103 -176 0
-104 -103 176 0
105 103 288 0
105 -103 -288 0
-105 103 -288 0
-105 -103 288 0
106 103 292 0
106 -103 -292 0
-106 103 -292 0
-106 -103 292 0
107 103 323 0
107 -103 -323 0
-107 103 -323 0
-107 -103 323 0
108 103 338 0
108 -103 -338 0
-108 103 -338 0
-108 -103 338 0
109 103 358 0
109 -103 -358 0
-109 103 -358 0
-109 -103 358 0
111 110 196 0
111 -110 -196 0
-111 110 -196 0
-111 -110 196 0
112 110 238 0
112 -110 -238 0
-112 110 -238 0
-112 -110 238 0
113 110 360 0
113 -110 -360 0
-113 110 -360 0
-113 -110 360 0
115 114 145 0
115 -114 -145 0
-115 114 -145 0
-115 -114 145 0
116 114 154 0
116 -114 -154 0
-116 114 -154 0
-116 -114 154 0
117 114 220 0
117 -114 -220 0
-117 114 -220 0
-117 -114 220 0
118 114 256 0
118 -114 -256 0
-118 114 -256 0
-118 -114 256 0
119 114 311 0
119 -114 -311 0
-119 114 -311 0
-119 -114 311 0
120 114 360 0
120 -114 -360 0
-120 114 -360 0
-120 -114 360 0
121 114 390 0
121 -114 -390 0
-121 114 -390 0
-121 -114 390 0
123 122 220 0
123 -122 -220 0
-123 122 -220 0
-123 -122 220 0
124 122 298 0
124 -122 -298 0
-124 122 -298 0
-124 -122 298 0
125 122 323 0
125 -122 -323 0
-125 122 -323 0
-125 -122 323 0
126 122 376 0
126 -122 -376 0
-126 122 -376 0
-126 -122 376 0
128 127 133 0
128 -127 -133 0
-128 127 -133 0
-128 -127 133 0
129 127 292 0
129 -127 -292 0
-129 127 -292 0
-129 -127 292 0
130 127 336 0
130 -127 -336 0
-130 127 -336 0
-130 -127 336 0
131 127 345 0
131 -127 -345 0
-131 127 -345 0
-131 -127 345 0
132 127 371 0
132 -127 -371 0
-132 127 -371 0
-132 -127 371 0
134 133 256 0
134 -133 -256 0
-134 133 -256 0
-134 -133 256 0
135 133 267 0
135 -133 -267 0
-135 133 -267 0
-135 -133 267 0
136 133 292 0
136 -133 -292 0
-136 133 -292 0
-136 -133 292 0
137 133 311 0
137 -133 -311 0
-137 133 -311 0
-137 -133 311 0
138 133 319 0
138 -133 -319 0
-138 133 -319 0
-138 -133 319 0
139 133 323 0
139 -133 -323 0
-139 133 -323 0
-139 -133 323 0
140 133 324 0
140 -133 -324 0
-140 133 -324 0
-140 -133 324 0
141 133 333 0
141 -133 -333 0
-141 133 -333 0
-141 -133 333 0
142 133 358 0
142 -133 -358 0
-142 133 -358 0
-142 -133 358 0
143 133 368 0
143 -133 -368 0
-143 133 -368 0
-143 -133 368 0
144 133 384 0
144 -133 -384 0
-144 133 -384 0
-144 -133 384 0
146 145 238 0
146 -145 -238 0
-146 145 -238 0
-146 -145 238 0
147 145 283 0
147 -145 -283 0
-147 145 -283 0
-147 -145 283 0
148 145 379 0
148 -145 -379 0
-148 145 -379 0
-148 -145 379 0
150 149 212 0
150 -149 -212 0
-150 149 -212 0
-150 -149 212 0
151 149 292 0
151 -149 -292 0
-151 149 -292 0
-151 -149 292 0
152 149 349 0
152 -149 -349 0
-152 149 -349 0
-152 -149 349 0
153 149 388 0
153 -149 -388 0
-153 149 -388 0
-153 -149 388 0
155 154 203 0
155 -154 -203 0
-155 154 -203 0
-155 -154 203 0
156 154 274 0
156 -154 -274 0
-156 154 -274 0
-156 -154 274 0
157 154 288 0
157 -154 -288 0
-157 154 -288 0
-157 -154 288 0
158 154 306 0
158 -154 -306 0
-158 154 -306 0
-158 -154 306 0
159 154 375 0
159 -154 -375 0
-159 154 -375 0
-159 -154 375 0
160 154 376 0
160 -154 -376 0
-160 154 -376 0
-160 -154 376 0
161 154 384 0
161 -154 -384 0
-161 154 -384 0
-161 -154 384 0
162 154 390 0
162 -154 -390 0
-162 154 -390 0
-162 -154 390 0
164 163 189 0
164 -163 -189 0
-164 163 -189 0
-164 -163 189 0
165 163 242 0
165 -163 -242 0
-165 163 -242 0
-165 -163 242 0
166 163 371 0
166 -163 -371 0
-166 163 -371 0
-166 -163 371 0
167 163 386 0
167 -163 -386 0
-167 163 -386 0
-167 -163 386 0
169 168 212 0
169 -168 -212 0
-169 168 -212 0
-169 -168 212 0
170 168 220 0
170 -168 -220 0
-170 168 -220 0
-170 -168 220 0
171 168 236 0
171 -168 -236 0
-171 168 -236 0
-171 -168 236 0
172 168 324 0
172 -168 -324 0
-172 168 -324 0
-172 -168 324 0
173 168 336 0
173 -168 -336 0
-173 168 -336 0
-173 -168 336 0
174 168 376 0
174 -168 -376 0
-174 168 -376 0
-174 -168 376 0
175 168 387 0
175 -168 -387 0
-175 168 -387 0
-175 -168 387 0
177 176 283 0
177 -176 -283 0
-177 176 -283 0
-177 -176 283 0
178 176 360 0
178 -176 -360 0
-178 176 -360 0
-178 -176 360 0
180 179 227 0
180 -179 -227 0
-180 179 -227 0
-180 -179 227 0
181 179 256 0
181 -179 -256 0
-181 179 -256 0
-181 -179 256 0
182 179 298 0
182 -179 -298 0
-182 179 -298 0
-182 -179 298 0
183 179 386 0
183 -179 -386 0
-183 179 -386 0
-183 -179 386 0
185 184 340 0
185 -184 -340 0
-185 184 -340 0
-185 -184 340 0
186 184 360 0
186 -184 -360 0
-186 184 -360 0
-186 -184 360 0
187 184 370 0
187 -184 -370 0
-187 184 -370 0
-187 -184 370 0
188 184 373 0
188 -184 -373 0
-188 184 -373 0
-188 -184 373 0
190 189 196 0
190 -189 -196 0
-190 189 -196 0
-190 -189 196 0
191 189 220 0
191 -189 -220 0
-191 189 -220 0
-191 -189 220 0
192 189 238 0
192 -189 -238 0
-192 189 -238 0
-192 -189 238 0
193 189 262 0
193 -189 -262 0
-193 189 -262 0
-193 -189 262 0
194 189 323 0
194 -189 -323 0
-194 189 -323 0
-194 -189 323 0
195 189 354 0
195 -189 -354 0
-195 189 -354 0
-195 -189 354 0
198 197 212 0
198 -197 -212 0
-198 197 -212 0
-198 -197 212 0
199 197 327 0
199 -197 -327 0
-199 197 -327 0
-199 -197 327 0
200 197 360 0
200 -197 -360 0
-200 197 -360 0
-200 -197 360 0
201 197 385 0
201 -197 -385 0
-201 197 -385 0
-201 -197 385 0
202 197 386 0
202 -197 -386 0
-202 197 -386 0
-202 -197 386 0
204 203 262 0
204 -203 -262 0
-204 203 -262 0
-204 -203 262 0
205 203 266 0
205 -203 -266 0
-205 203 -266 0
-205 -203 266 0
206 203 364 0
206 -203 -364 0
-206 203 -364 0
-206 -203 364 0
208 207 236 0
208 -207 -236 0
-208 207 -236 0
-208 -207 236 0
209 207 370 0
209 -207 -370 0
-209 207 -370 0
-209 -207 370 0
210 207 376 0
210 -207 -376 0
-210 207 -376 0
-210 -207 376 0
211 207 382 0
211 -207 -382 0
-211 207 -382 0
-211 -207 382 0
213 212 220 0
213 -212 -220 0
-213 212 -220 0
-213 -212 220 0
214 212 238 0
214 -212 -238 0
-214 212 -238 0
-214 -212 238 0
215 212 283 0
215 -212 -283 0
-215 212 -283 0
-215 -212 283 0
216 212 306 0
216 -212 -306 0
-216 212 -306 0
-216 -212 306 0
217 212 358 0
217 -212 -358 0
-217 212 -358 0
-217 -212 358 0
218 212 364 0
218 -212 -364 0
-218 212 -364 0
-218 -212 364 0
219 212 390 0
219 -212 -390 0
-219 212 -390 0
-219 -212 390 0
221 220 236 0
221 -220 -236 0
-221 220 -236 0
-221 -220 236 0
222 220 330 0
222 -220 -330 0
-222 220 -330 0
-222 -220 330 0
223 220 333 0
223 -220 -333 0
-223 220 -333 0
-223 -220 333 0
224 220 343 0
224 -220 -343 0
-224 220 -343 0
-224 -220 343 0
225 220 356 0
225 -220 -356 0
-225 220 -356 0
-225 -220 356 0
226 220 388 0
226 -220 -388 0
-226 220 -388 0
-226 -220 388 0
228 227 338 0
228 -227 -338 0
-228 227 -338 0
-228 -227 338 0
229 227 343 0
229 -227 -343 0
-229 227 -343 0
-229 -227 343 0
230 227 353 0
230 -227 -353 0
-230 227 -353 0
-230 -227 353 0
231 227 379 0
231 -227 -379 0
-231 227 -379 0
-231 -227 379 0
233 232 250 0
233 -232 -250 0
-233 232 -250 0
-233 -232 250 0
234 232 311 0
234 -232 -311 0
-234 232 -311 0
-234 -232 311 0
235 232 343 0
235 -232 -343 0
-235 232 -343 0
-235 -232 343 0
237 236 345 0
237 -236 -345 0
-237 236 -345 0
-237 -236 345 0
239 238 274 0
239 -238 -274 0
-239 238 -274 0
-239 -238 274 0
240 238 354 0
240 -238 -354 0
-240 238 -354 0
-240 -238 354 0
241 238 358 0
241 -238 -358 0
-241 238 -358 0
-241 -238 358 0
243 242 278 0
243 -242 -278 0
-243 242 -278 0
-243 -242 278 0
244 242 324 0
244 -242 -324 0
-244 242 -324 0
-244 -242 324 0
245 242 330 0
245 -242 -330 0
-245 242 -330 0
-245 -242 330 0
246 242 345 0
246 -242 -345 0
-246 242 -345 0
-246 -242 345 0
247 242 356 0
247 -242 -356 0
-247 242 -356 0
-247 -242 356 0
248 242 368 0
248 -242 -368 0
-248 242 -368 0
-248 -242 368 0
249 242 375 0
249 -242 -375 0
-249 242 -375 0
-249 -242 375 0
251 250 311 0
251 -250 -311 0
-251 250 -311 0
-251 -250 311 0
252 250 336 0
252 -250 -336 0
-252 250 -336 0
-252 -250 336 0
253 250 358 0
253 -250 -358 0
-253 250 -358 0
-253 -250 358 0
254 250 373 0
254 -250 -373 0
-254 250 -373 0
-254 -250 373 0
255 250 389 0
255 -250 -389 0
-255 250 -389 0
-255 -250 389 0
257 256 311 0
257 -256 -311 0
-257 256 -311 0
-257 -256 311 0
258 256 333 0
258 -256 -333 0
-258 256 -333 0
-258 -256 333 0
259 256 336 0
259 -256 -336 0
-259 256 -336 0
-259 -256 336 0
260 256 354 0
260 -256 -354 0
-260 256 -354 0
-260 -256 354 0
261 256 390 0
261 -256 -390 0
-261 256 -390 0
-261 -256 390 0
263 262 306 0
263 -262 -306 0
-263 262 -306 0
-263 -262 306 0
264 262 370 0
264 -262 -370 0
-264 262 -370 0
-264 -262 370 0
265 262 377 0
265 -262 -377 0
-265 262 -377 0
-265 -262 377 0
268 267 288 0
268 -267 -288 0
-268 267 -288 0
-268 -267 288 0
269 267 298 0
269 -267 -298 0
-269 267 -298 0
-269 -267 298 0
270 267 306 0
270 -267 -306 0
-270 267 -306 0
-270 -267 306 0
271 267 323 0
271 -267 -323 0
-271 267 -323 0
-271 -267 323 0
272 267 375 0
272 -267 -375 0
-272 267 -375 0
-272 -267 375 0
273 267 388 0
273 -267 -388 0
-273 267 -388 0
-273 -267 388 0
275 274 278 0
275 -274 -278 0
-275 274 -278 0
-275 -274 278 0
276 274 351 0
276 -274 -351 0
-276 274 -351 0
-276 -274 351 0
277 274 385 0
277 -274 -385 0
-277 274 -385 0
-277 -274 385 0
279 278 336 0
279 -278 -336 0
-279 278 -336 0
-279 -278 336 0
280 278 338 0
280 -278 -338 0
-280 278 -338 0
-280 -278 338 0
281 278 370 0
281 -278 -370 0
-281 278 -370 0
-281 -278 370 0
282 278 383 0
282 -278 -383 0
-282 278 -383 0
-282 -278 383 0
284 283 323 0
284 -283 -323 0
-284 283 -323 0
-284 -283 323 0
285 283 333 0
285 -283 -333 0
-285 283 -333 0
-285 -283 333 0
286 283 358 0
286 -283 -358 0
-286 283 -358 0
-286 -283 358 0
287 283 371 0
287 -283 -371 0
-287 283 -371 0
-287 -283 371 0
289 288 330 0
289 -288 -330 0
-289 288 -330 0
-289 -288 330 0
290 288 370 0
290 -288 -370 0
-290 288 -370 0
-290 -288 370 0
291 288 382 0
291 -288 -382 0
-291 288 -382 0
-291 -288 382 0
293 292 330 0
293 -292 -330 0
-293 292 -330 0
-293 -292 330 0
294 292 333 0
294 -292 -333 0
-294 292 -333 0
-294 -292 333 0
295 292 354 0
295 -292 -354 0
-295 292 -354 0
-295 -292 354 0
296 292 358 0
296 -292 -358 0
-296 292 -358 0
-296 -292 358 0
297 292 360 0
297 -292 -360 0
-297 292 -360 0
-297 -292 360 0
299 298 345 0
299 -298 -345 0
-299 298 -345 0
-299 -298 345 0
300 298 354 0
300 -298 -354 0
-300 298 -354 0
-300 -298 354 0
301 298 383 0
301 -298 -383 0
-301 298 -383 0
-301 -298 383 0
303 302 324 0
303 -302 -324 0
-303 302 -324 0
-303 -302 324 0
304 302 338 0
304 -302 -338 0
-304 302 -338 0
-304 -302 338 0
305 302 358 0
305 -302 -358 0
-305 302 -358 0
-305 -302 358 0
307 306 376 0
307 -306 -376 0
-307 306 -376 0
-307 -306 376 0
309 308 311 0
309 -308 -311 0
-309 308 -311 0
-309 -308 311 0
310 308 375 0
310 -308 -375 0
-310 308 -375 0
-310 -308 375 0
312 311 319 0
312 -311 -319 0
-312 311 -319 0
-312 -311 319 0
313 311 333 0
313 -311 -333 0
-313 311 -333 0
-313 -311 333 0
314 311 338 0
314 -311 -338 0
-314 311 -338 0
-314 -311 338 0
315 311 343 0
315 -311 -343 0
-315 311 -343 0
-315 -311 343 0
316 311 375 0
316 -311 -375 0
-316 311 -375 0
-316 -311 375 0
317 311 376 0
317 -311 -376 0
-317 311 -376 0
-317 -311 376 0
318 311 379 0
318 -311 -379 0
-318 311 -379 0
-318 -311 379 0
320 319 358 0
320 -319 -358 0
-320 319 -358 0
-320 -319 358 0
321 319 360 0
321 -319 -360 0
-321 319 -360 0
-321 -319 360 0
322 319 368 0
322 -319 -368 0
-322 319 -368 0
-322 -319 368 0
325 324 377 0
325 -324 -377 0
-325 324 -377 0
-325 -324 377 0
326 324 382 0
326 -324 -382 0
-326 324 -382 0
-326 -324 382 0
328 327 336 0
328 -327 -336 0
-328 327 -336 0
-328 -327 336 0
329 327 353 0
329 -327 -353 0
-329 327 -353 0
-329 -327 353 0
331 330 354 0
331 -330 -354 0
-331 330 -354 0
-331 -330 354 0
332 330 360 0
332 -330 -360 0
-332 330 -360 0
-332 -330 360 0
335 334 383 0
335 -334 -383 0
-335 334 -383 0
-335 -334 383 0
337 336 349 0
337 -336 -349 0
-337 336 -349 0
-337 -336 349 0
339 338 340 0
339 -338 -340 0
-339 338 -340 0
-339 -338 340 0
341 340 345 0
341 -340 -345 0
-341 340 -345 0
-341 -340 345 0
342 340 390 0
342 -340 -390 0
-342 340 -390 0
-342 -340 390 0
344 343 383 0
344 -343 -383 0
-344 343 -383 0
-344 -343 383 0
346 345 356 0
346 -345 -356 0
-346 345 -356 0
-346 -345 356 0
347 345 358 0
347 -345 -358 0
-347 345 -358 0
-347 -345 358 0
348 345 373 0
348 -345 -373 0
-348 345 -373 0
-348 -345 373 0
350 349 385 0
350 -349 -385 0
-350 349 -385 0
-350 -349 385 0
352 351 368 0
352 -351 -368 0
-352 351 -368 0
-352 -351 368 0
355 354 376 0
355 -354 -376 0
-355 354 -376 0
-355 -354 376 0
357 356 360 0
357 -356 -360 0
-357 356 -360 0
-357 -356 360 0
359 358 377 0
359 -358 -377 0
-359 358 -377 0
-359 -358 377 0
361 360 373 0
361 -360 -373 0
-361 360 -373 0
-361 -360 373 0
362 360 377 0
362 -360 -377 0
-362 360 -377 0
-362 -360 377 0
363 360 389 0
363 -360 -389 0
-363 360 -389 0
-363 -360 389 0
365 364 368 0
365 -364 -368 0
-365 364 -368 0
-365 -364 368 0
366 364 376 0
366 -364 -376 0
-366 364 -376 0
-366 -364 376 0
367 364 383 0
367 -364 -383 0
-367 364 -383 0
-367 -364 383 0
369 368 371 0
369 -368 -371 0
-369 368 -371 0
-369 -368 371 0
372 371 375 0
372 -371 -375 0
-372 371 -375 0
-372 -371 375 0
374 373 389 0
374 -373 -389 0
-374 373 -389 0
-374 -373 389 0
378 377 379 0
378 -377 -379 0
-378 377 -379 0
-378 -377 379 0
380 379 384 0
380 -379 -384 0
-380 379 -384 0
-380 -379 384 0
381 379 387 0
381 -379 -387 0
-381 379 -387 0
-381 -379 387 0
